MARKOV
121
2 2 2 2 2 2 2 2 2 2 2 2 2 2 2 2 2 2 2 2 2 2 2 2 2 2 2 2 2 2 2 2 2 2 2 2 2 2 2 2 2 2 2 2 2 2 2 2 2 2 2 2 2 2 2 2 2 2 2 2 2 2 2 2 2 2 2 2 2 2 2 2 2 2 2 2 2 2 2 2 2 2 2 2 2 2 2 2 2 2 2 2 2 2 2 2 2 2 2 2 2 2 2 2 2 2 2 2 2 2 2 2 2 2 2 2 2 2 2 2 14

121
3 6 9 22
3 22 27 62
3 25 45 53
3 2 74 75
3 34 43 52
3 8 25 76
3 26 36 68
3 21 29 57
3 37 49 60
3 15 28 52
3 7 34 44
3 2 4 32
3 15 19 37
3 19 44 72
3 3 65 68
3 19 66 80
3 62 63 80
3 18 54 59
3 54 65 71
3 7 27 42
3 6 39 83
3 16 29 43
3 18 56 59
3 14 42 48
3 29 34 61
3 10 15 25
3 39 43 51
3 17 36 48
3 13 68 76
3 5 21 58
3 5 25 40
3 34 38 77
3 20 76 79
3 23 55 70
3 34 47 82
3 2 64 83
3 15 50 67
3 10 38 77
3 26 37 50
3 20 32 40
3 49 73 81
3 0 12 57
3 33 37 47
3 1 55 79
3 41 60 65
3 46 64 71
3 23 34 74
3 16 60 74
3 41 46 49
3 19 23 74
3 12 14 62
3 56 68 75
3 28 61 65
3 0 34 73
3 0 46 77
3 0 3 54
3 6 45 47
3 29 72 74
3 7 22 66
3 38 47 48
3 31 34 82
3 5 11 55
3 10 23 48
3 20 74 80
3 7 49 74
3 8 33 70
3 9 23 64
2 18 32
2 30 78
2 19 77
3 74 77 84
3 74 77 85
3 31 70 86
3 31 70 87
3 25 55 88
3 25 55 89
4 15 53 76 90
4 15 53 76 91
4 15 53 76 92
4 15 53 76 93
3 6 61 94
3 6 61 95
4 1 73 81 96
4 1 73 81 97
4 1 73 81 98
4 1 73 81 99
4 13 78 82 100
4 13 78 82 101
4 13 78 82 102
4 13 78 82 103
3 30 58 104
3 30 58 105
3 47 63 106
3 47 63 107
4 39 56 67 108
4 39 56 67 109
4 39 56 67 110
4 39 56 67 111
4 17 35 64 112
4 17 35 64 113
4 17 35 64 114
4 17 35 64 115
3 24 35 116
3 24 35 117
3 59 69 118
3 59 69 119
4 19 34 42 120
4 27 61 74 120
4 13 24 70 120
4 25 46 54 120
4 53 62 70 120
4 30 61 62 120
4 1 33 52 120
4 26 49 78 120
4 8 58 75 120
4 10 36 63 120
4 27 45 67 120
4 7 28 35 120
4 8 24 25 120
4 31 38 69 120
1 120

8 0.309333 0.770643 0.690667 0.229357 0.172985 0.413791 0.827015 0.586209
8 0.435433 0.434081 0.564567 0.565919 0.312373 0.470123 0.687627 0.529877
8 0.00539321 0.577455 0.994607 0.422545 0.478703 0.927749 0.521297 0.0722513
8 0.350126 0.489428 0.621108 0.315919 0.649874 0.510572 0.378892 0.684081
8 0.543757 0.456243 0.51544 0.48456 0.666849 0.333151 0.462168 0.537832
8 0.0155263 0.984474 0.655606 0.344394 0.478939 0.521061 0.403331 0.596669
8 0.974828 0.836205 0.0251724 0.163795 0.365138 0.371347 0.634862 0.628653
8 0.381664 0.72331 0.0614796 0.388326 0.618336 0.27669 0.93852 0.611674
8 0.880073 0.119927 0.465826 0.534174 0.387857 0.612143 0.844894 0.155106
8 0.764556 0.977569 0.235444 0.0224308 0.816409 0.775537 0.183591 0.224463
8 0.156728 0.211273 0.383669 0.568534 0.843272 0.788727 0.616331 0.431466
8 0.32649 0.394502 0.67351 0.605498 0.771447 0.0785935 0.228553 0.921406
8 0.486742 0.513258 0.639876 0.360124 0.57162 0.42838 0.0667094 0.933291
8 0.138494 0.530835 0.861506 0.469165 0.0650553 0.272934 0.934945 0.727066
8 0.848974 0.151026 0.437464 0.562536 0.702886 0.297114 0.158139 0.841861
8 0.402621 0.732313 0.597379 0.267687 0.0283048 0.377274 0.971695 0.622726
8 0.617615 0.35822 0.373406 0.388579 0.382385 0.64178 0.626594 0.611421
8 0.246329 0.753671 0.755054 0.244946 0.361132 0.638868 0.647435 0.352565
8 0.131372 0.42406 0.174064 0.530667 0.868628 0.57594 0.825936 0.469333
8 0.33429 0.66571 0.121593 0.878407 0.158781 0.841219 0.368416 0.631584
8 0.102262 0.86628 0.897738 0.13372 0.533061 0.664822 0.466939 0.335178
8 0.523059 0.476941 0.522554 0.477446 0.66555 0.33445 0.414585 0.585415
8 0.0213571 0.168884 0.978643 0.831116 0.988129 0.631044 0.0118708 0.368956
8 0.480907 0.630214 0.486404 0.222332 0.519093 0.369786 0.513596 0.777668
8 0.96633 0.655594 0.463069 0.591303 0.0336704 0.344406 0.536931 0.408697
8 0.48295 0.093584 0.51705 0.906416 0.521063 0.648945 0.478937 0.351055
8 0.639276 0.360724 0.72666 0.27334 0.25914 0.74086 0.0689632 0.931037
8 0.662106 0.939461 0.428841 0.157589 0.337894 0.0605389 0.571159 0.842411
8 0.314583 0.358776 0.324439 0.219927 0.685417 0.641224 0.675561 0.780073
8 0.512835 0.0820908 0.771747 0.584543 0.487165 0.917909 0.228253 0.415457
8 0.611329 0.388671 0.612641 0.387359 0.0680813 0.931919 0.741736 0.258264
8 0.459008 0.894751 0.540992 0.105249 0.844584 0.575305 0.155416 0.424695
8 0.367529 0.44057 0.844854 0.327662 0.632471 0.55943 0.155146 0.672338
8 0.280842 0.660752 0.719158 0.339248 0.699928 0.373825 0.300072 0.626175
8 0.707656 0.292344 0.0171321 0.982868 0.861083 0.138917 0.393594 0.606406
8 0.547072 0.452928 0.31534 0.68466 0.476075 0.523925 0.620049 0.379951
8 0.152581 0.778782 0.847419 0.221218 0.401166 0.271428 0.598834 0.728572
8 0.41268 0.535378 0.361465 0.527651 0.58732 0.464622 0.638535 0.472349
8 0.366066 0.0949672 0.41908 0.0973342 0.633934 0.905033 0.58092 0.902666
8 0.535365 0.53245 0.464635 0.46755 0.737791 0.527435 0.262209 0.472565
8 0.316069 0.683931 0.175829 0.824171 0.459912 0.540088 0.86155 0.13845
8 0.525193 0.474807 0.409524 0.590476 0.40052 0.59948 0.90773 0.0922703
8 0.71866 0.476208 0.769236 0.565557 0.28134 0.523792 0.230764 0.434443
8 0.345201 0.654799 0.477547 0.522453 0.492302 0.507698 0.466805 0.533195
8 0.363206 0.866602 0.24351 0.975132 0.636794 0.133398 0.75649 0.024868
8 0.651722 0.348278 0.576001 0.423999 0.716686 0.283314 0.406843 0.593157
8 0.643023 0.833127 0.356977 0.166873 0.452812 0.312972 0.547188 0.687028
8 0.415622 0.0464046 0.200608 0.234382 0.584378 0.953595 0.799392 0.765618
8 0.340366 0.575847 0.659634 0.424153 0.419484 0.271351 0.580516 0.728649
8 0.302485 0.647846 0.697515 0.352154 0.234671 0.0809204 0.765329 0.91908
8 0.39438 0.112534 0.349388 0.563497 0.60562 0.887466 0.650612 0.436503
8 0.469378 0.530622 0.718022 0.281978 0.597804 0.402196 0.550859 0.449141
8 0.439939 0.560061 0.54366 0.45634 0.792555 0.207445 0.804127 0.195873
8 0.452608 0.547392 0.0967018 0.903298 0.455731 0.544269 0.725911 0.274089
8 0.650001 0.291646 0.318064 0.650773 0.349999 0.708354 0.681936 0.349227
8 0.256606 0.326037 0.743394 0.673963 0.863291 0.420897 0.136709 0.579103
8 0.46191 0.724098 0.273988 0.668427 0.53809 0.275902 0.726012 0.331573
8 0.442173 0.776453 0.557827 0.223547 0.96865 0.219405 0.0313505 0.780595
8 0.38694 0.745422 0.61306 0.254578 0.300015 0.57079 0.699985 0.42921
8 0.251041 0.425572 0.748959 0.574428 0.688317 0.574934 0.311683 0.425066
8 0.548937 0.442676 0.224477 0.590779 0.451063 0.557324 0.775523 0.409221
8 0.00947627 0.215452 0.990524 0.784548 0.707611 0.48598 0.292389 0.51402
8 0.504713 0.495287 0.31469 0.68531 0.670953 0.329047 0.087611 0.912389
8 0.263143 0.736857 0.673821 0.326179 0.917745 0.0822552 0.659817 0.340183
8 0.111059 0.91975 0.888941 0.0802504 0.254751 0.446523 0.745249 0.553477
8 0.233956 0.255625 0.877536 0.857554 0.766044 0.744375 0.122464 0.142446
8 0.368221 0.631779 0.500725 0.499275 0.355232 0.644768 0.00979529 0.990205
4 0.507261 0.622742 0.492739 0.377258
4 0.285367 0.557843 0.714633 0.442157
4 0.255786 0.744214 0.353861 0.646139
8 1.0 0.0 1.0 1.0 0.0 1.0 1.0 1.0
8 1.0 1.0 1.0 0.0 1.0 1.0 0.0 1.0
8 1.0 0.0 0.0 1.0 1.0 1.0 1.0 1.0
8 1.0 1.0 1.0 1.0 1.0 0.0 0.0 1.0
8 1.0 0.0 1.0 1.0 0.0 1.0 1.0 1.0
8 1.0 1.0 1.0 0.0 1.0 1.0 0.0 1.0
16 1.0 0.0 1.0 1.0 0.0 1.0 1.0 1.0 1.0 1.0 1.0 1.0 1.0 1.0 1.0 1.0
16 1.0 1.0 1.0 0.0 1.0 1.0 0.0 1.0 1.0 1.0 1.0 1.0 1.0 1.0 1.0 1.0
16 1.0 1.0 1.0 1.0 1.0 1.0 1.0 1.0 1.0 0.0 1.0 1.0 0.0 1.0 1.0 1.0
16 1.0 1.0 1.0 1.0 1.0 1.0 1.0 1.0 1.0 1.0 1.0 0.0 1.0 1.0 0.0 1.0
8 1.0 0.0 0.0 1.0 1.0 1.0 1.0 1.0
8 1.0 1.0 1.0 1.0 1.0 0.0 0.0 1.0
16 1.0 0.0 1.0 1.0 1.0 1.0 1.0 1.0 0.0 1.0 1.0 1.0 1.0 1.0 1.0 1.0
16 1.0 1.0 1.0 0.0 1.0 1.0 1.0 1.0 1.0 1.0 0.0 1.0 1.0 1.0 1.0 1.0
16 1.0 1.0 1.0 1.0 1.0 0.0 1.0 1.0 1.0 1.0 1.0 1.0 0.0 1.0 1.0 1.0
16 1.0 1.0 1.0 1.0 1.0 1.0 1.0 0.0 1.0 1.0 1.0 1.0 1.0 1.0 0.0 1.0
16 1.0 0.0 1.0 1.0 0.0 1.0 1.0 1.0 1.0 1.0 1.0 1.0 1.0 1.0 1.0 1.0
16 1.0 1.0 1.0 0.0 1.0 1.0 0.0 1.0 1.0 1.0 1.0 1.0 1.0 1.0 1.0 1.0
16 1.0 1.0 1.0 1.0 1.0 1.0 1.0 1.0 1.0 0.0 1.0 1.0 0.0 1.0 1.0 1.0
16 1.0 1.0 1.0 1.0 1.0 1.0 1.0 1.0 1.0 1.0 1.0 0.0 1.0 1.0 0.0 1.0
8 1.0 0.0 0.0 1.0 1.0 1.0 1.0 1.0
8 1.0 1.0 1.0 1.0 1.0 0.0 0.0 1.0
8 1.0 0.0 0.0 1.0 1.0 1.0 1.0 1.0
8 1.0 1.0 1.0 1.0 1.0 0.0 0.0 1.0
16 1.0 0.0 0.0 1.0 1.0 1.0 1.0 1.0 1.0 1.0 1.0 1.0 1.0 1.0 1.0 1.0
16 1.0 1.0 1.0 1.0 1.0 0.0 0.0 1.0 1.0 1.0 1.0 1.0 1.0 1.0 1.0 1.0
16 1.0 1.0 1.0 1.0 1.0 1.0 1.0 1.0 1.0 0.0 0.0 1.0 1.0 1.0 1.0 1.0
16 1.0 1.0 1.0 1.0 1.0 1.0 1.0 1.0 1.0 1.0 1.0 1.0 1.0 0.0 0.0 1.0
16 1.0 0.0 1.0 1.0 0.0 1.0 1.0 1.0 1.0 1.0 1.0 1.0 1.0 1.0 1.0 1.0
16 1.0 1.0 1.0 0.0 1.0 1.0 0.0 1.0 1.0 1.0 1.0 1.0 1.0 1.0 1.0 1.0
16 1.0 1.0 1.0 1.0 1.0 1.0 1.0 1.0 1.0 0.0 1.0 1.0 0.0 1.0 1.0 1.0
16 1.0 1.0 1.0 1.0 1.0 1.0 1.0 1.0 1.0 1.0 1.0 0.0 1.0 1.0 0.0 1.0
8 1.0 0.0 1.0 1.0 0.0 1.0 1.0 1.0
8 1.0 1.0 1.0 0.0 1.0 1.0 0.0 1.0
8 1.0 0.0 0.0 1.0 1.0 1.0 1.0 1.0
8 1.0 1.0 1.0 1.0 1.0 0.0 0.0 1.0
112 48.0 1.0 1.0 1.0 1.0 1.0 1.0 1.0 1.0 1.0 1.0 1.0 1.0 1.0 7.0 1.0 1.0 1.0 1.0 1.0 1.0 1.0 1.0 1.0 1.0 1.0 1.0 1.0 77.0 1.0 1.0 1.0 1.0 1.0 1.0 1.0 1.0 1.0 1.0 1.0 1.0 1.0 36.0 1.0 1.0 1.0 1.0 1.0 1.0 1.0 1.0 1.0 1.0 1.0 1.0 1.0 94.0 1.0 1.0 1.0 1.0 1.0 1.0 1.0 1.0 1.0 1.0 1.0 1.0 1.0 35.0 1.0 1.0 1.0 1.0 1.0 1.0 1.0 1.0 1.0 1.0 1.0 1.0 1.0 50.0 1.0 1.0 1.0 1.0 1.0 1.0 1.0 1.0 1.0 1.0 1.0 1.0 1.0 11.0 1.0 1.0 1.0 1.0 1.0 1.0 1.0 1.0 1.0 1.0 1.0 1.0 1.0
112 1.0 1.0 1.0 1.0 1.0 1.0 1.0 1.0 1.0 1.0 1.0 1.0 1.0 1.0 1.0 60.0 1.0 1.0 1.0 1.0 1.0 1.0 1.0 1.0 1.0 1.0 1.0 1.0 1.0 11.0 1.0 1.0 1.0 1.0 1.0 1.0 1.0 1.0 1.0 1.0 1.0 1.0 1.0 52.0 1.0 1.0 1.0 1.0 1.0 1.0 1.0 1.0 1.0 1.0 1.0 1.0 1.0 31.0 1.0 1.0 1.0 1.0 1.0 1.0 1.0 1.0 1.0 1.0 1.0 1.0 1.0 56.0 1.0 1.0 1.0 1.0 1.0 1.0 1.0 1.0 1.0 1.0 1.0 1.0 1.0 48.0 1.0 1.0 1.0 1.0 1.0 1.0 1.0 1.0 1.0 1.0 1.0 1.0 1.0 20.0 1.0 1.0 1.0 1.0 1.0 1.0 1.0 1.0 1.0 1.0 1.0 1.0
112 1.0 1.0 0.0 1.0 1.0 1.0 1.0 1.0 1.0 1.0 1.0 1.0 1.0 1.0 1.0 1.0 72.0 1.0 1.0 1.0 1.0 1.0 1.0 1.0 1.0 1.0 1.0 1.0 1.0 1.0 69.0 1.0 1.0 1.0 1.0 1.0 1.0 1.0 1.0 1.0 1.0 1.0 1.0 1.0 82.0 1.0 1.0 1.0 1.0 1.0 1.0 1.0 1.0 1.0 1.0 1.0 1.0 1.0 31.0 1.0 1.0 1.0 1.0 1.0 1.0 1.0 1.0 1.0 1.0 1.0 1.0 1.0 71.0 1.0 1.0 1.0 1.0 1.0 1.0 1.0 1.0 1.0 1.0 1.0 1.0 1.0 8.0 1.0 1.0 1.0 1.0 1.0 1.0 1.0 1.0 1.0 1.0 1.0 1.0 1.0 94.0 1.0 1.0 1.0 1.0 1.0 1.0 1.0 1.0 1.0 1.0 1.0
112 1.0 1.0 1.0 41.0 1.0 1.0 1.0 1.0 1.0 1.0 1.0 1.0 1.0 1.0 1.0 1.0 1.0 83.0 1.0 1.0 1.0 1.0 1.0 1.0 1.0 1.0 1.0 1.0 1.0 1.0 1.0 10.0 1.0 1.0 1.0 1.0 1.0 1.0 1.0 1.0 1.0 1.0 1.0 1.0 1.0 58.0 1.0 1.0 1.0 1.0 1.0 1.0 1.0 1.0 1.0 1.0 1.0 1.0 1.0 73.0 1.0 1.0 1.0 1.0 1.0 1.0 1.0 1.0 1.0 1.0 1.0 1.0 1.0 12.0 1.0 1.0 1.0 1.0 1.0 1.0 1.0 1.0 1.0 1.0 1.0 1.0 1.0 54.0 1.0 1.0 1.0 1.0 1.0 1.0 1.0 1.0 1.0 1.0 1.0 1.0 1.0 92.0 1.0 1.0 1.0 1.0 1.0 1.0 1.0 1.0 1.0 1.0
112 1.0 1.0 1.0 1.0 88.0 1.0 1.0 1.0 1.0 1.0 1.0 1.0 1.0 1.0 1.0 1.0 1.0 1.0 94.0 1.0 1.0 1.0 1.0 1.0 1.0 1.0 1.0 1.0 1.0 1.0 1.0 1.0 8.0 1.0 1.0 1.0 1.0 1.0 1.0 1.0 1.0 1.0 1.0 1.0 1.0 1.0 74.0 1.0 1.0 1.0 1.0 1.0 1.0 1.0 1.0 1.0 1.0 1.0 1.0 1.0 11.0 1.0 1.0 1.0 1.0 1.0 1.0 1.0 1.0 1.0 1.0 1.0 1.0 1.0 85.0 1.0 1.0 1.0 1.0 1.0 1.0 1.0 1.0 1.0 1.0 1.0 1.0 1.0 61.0 1.0 1.0 1.0 1.0 1.0 1.0 1.0 1.0 1.0 1.0 1.0 1.0 1.0 19.0 1.0 1.0 1.0 1.0 1.0 1.0 1.0 1.0 1.0
112 1.0 1.0 1.0 1.0 1.0 6.0 1.0 1.0 1.0 1.0 1.0 1.0 1.0 1.0 1.0 1.0 1.0 1.0 1.0 70.0 1.0 1.0 1.0 1.0 1.0 1.0 1.0 1.0 1.0 1.0 1.0 1.0 1.0 14.0 1.0 1.0 1.0 1.0 1.0 1.0 1.0 1.0 1.0 1.0 1.0 1.0 1.0 46.0 1.0 1.0 1.0 1.0 1.0 1.0 1.0 1.0 1.0 1.0 1.0 1.0 1.0 69.0 1.0 1.0 1.0 1.0 1.0 1.0 1.0 1.0 1.0 1.0 1.0 1.0 1.0 61.0 1.0 1.0 1.0 1.0 1.0 1.0 1.0 1.0 1.0 1.0 1.0 1.0 1.0 23.0 1.0 1.0 1.0 1.0 1.0 1.0 1.0 1.0 1.0 1.0 1.0 1.0 1.0 39.0 1.0 1.0 1.0 1.0 1.0 1.0 1.0 1.0
112 1.0 1.0 1.0 1.0 1.0 1.0 17.0 1.0 1.0 1.0 1.0 1.0 1.0 1.0 1.0 1.0 1.0 1.0 1.0 1.0 9.0 1.0 1.0 1.0 1.0 1.0 1.0 1.0 1.0 1.0 1.0 1.0 1.0 1.0 29.0 1.0 1.0 1.0 1.0 1.0 1.0 1.0 1.0 1.0 1.0 1.0 1.0 1.0 51.0 1.0 1.0 1.0 1.0 1.0 1.0 1.0 1.0 1.0 1.0 1.0 1.0 1.0 67.0 1.0 1.0 1.0 1.0 1.0 1.0 1.0 1.0 1.0 1.0 1.0 1.0 1.0 51.0 1.0 1.0 1.0 1.0 1.0 1.0 1.0 1.0 1.0 1.0 1.0 1.0 1.0 65.0 1.0 1.0 1.0 1.0 1.0 1.0 1.0 1.0 1.0 1.0 1.0 1.0 1.0 41.0 1.0 1.0 1.0 1.0 1.0 1.0 1.0
112 1.0 1.0 1.0 1.0 1.0 1.0 1.0 58.0 1.0 1.0 1.0 1.0 1.0 1.0 1.0 1.0 1.0 1.0 1.0 1.0 1.0 20.0 1.0 1.0 1.0 1.0 1.0 1.0 1.0 1.0 1.0 1.0 1.0 1.0 1.0 78.0 1.0 1.0 1.0 1.0 1.0 1.0 1.0 1.0 1.0 1.0 1.0 1.0 1.0 16.0 1.0 1.0 1.0 1.0 1.0 1.0 1.0 1.0 1.0 1.0 1.0 1.0 1.0 23.0 1.0 1.0 1.0 1.0 1.0 1.0 1.0 1.0 1.0 1.0 1.0 1.0 1.0 38.0 1.0 1.0 1.0 1.0 1.0 1.0 1.0 1.0 1.0 1.0 1.0 1.0 1.0 56.0 1.0 1.0 1.0 1.0 1.0 1.0 1.0 1.0 1.0 1.0 1.0 1.0 1.0 93.0 1.0 1.0 1.0 1.0 1.0 1.0
112 1.0 1.0 1.0 1.0 1.0 1.0 1.0 1.0 4.0 1.0 1.0 1.0 1.0 1.0 1.0 1.0 1.0 1.0 1.0 1.0 1.0 1.0 56.0 1.0 1.0 1.0 1.0 1.0 1.0 1.0 1.0 1.0 1.0 1.0 1.0 1.0 62.0 1.0 1.0 1.0 1.0 1.0 1.0 1.0 1.0 1.0 1.0 1.0 1.0 1.0 59.0 1.0 1.0 1.0 1.0 1.0 1.0 1.0 1.0 1.0 1.0 1.0 1.0 1.0 5.0 1.0 1.0 1.0 1.0 1.0 1.0 1.0 1.0 1.0 1.0 1.0 1.0 1.0 75.0 1.0 1.0 1.0 1.0 1.0 1.0 1.0 1.0 1.0 1.0 1.0 1.0 1.0 71.0 1.0 1.0 1.0 1.0 1.0 1.0 1.0 1.0 1.0 1.0 1.0 1.0 1.0 93.0 1.0 1.0 1.0 1.0 1.0
112 1.0 1.0 1.0 1.0 1.0 1.0 1.0 1.0 1.0 61.0 1.0 1.0 1.0 1.0 1.0 1.0 1.0 1.0 1.0 1.0 1.0 1.0 1.0 50.0 1.0 1.0 1.0 1.0 1.0 1.0 1.0 1.0 1.0 1.0 1.0 1.0 1.0 22.0 1.0 1.0 1.0 1.0 1.0 1.0 1.0 1.0 1.0 1.0 1.0 1.0 1.0 60.0 1.0 1.0 1.0 1.0 1.0 1.0 1.0 1.0 1.0 1.0 1.0 1.0 1.0 35.0 1.0 1.0 1.0 1.0 1.0 1.0 1.0 1.0 1.0 1.0 1.0 1.0 1.0 90.0 1.0 1.0 1.0 1.0 1.0 1.0 1.0 1.0 1.0 1.0 1.0 1.0 1.0 41.0 1.0 1.0 1.0 1.0 1.0 1.0 1.0 1.0 1.0 1.0 1.0 1.0 1.0 67.0 1.0 1.0 1.0 1.0
112 1.0 1.0 1.0 1.0 1.0 1.0 1.0 1.0 1.0 1.0 41.0 1.0 1.0 1.0 1.0 1.0 1.0 1.0 1.0 1.0 1.0 1.0 1.0 1.0 38.0 1.0 1.0 1.0 1.0 1.0 1.0 1.0 1.0 1.0 1.0 1.0 1.0 1.0 23.0 1.0 1.0 1.0 1.0 1.0 1.0 1.0 1.0 1.0 1.0 1.0 1.0 1.0 70.0 1.0 1.0 1.0 1.0 1.0 1.0 1.0 1.0 1.0 1.0 1.0 1.0 1.0 50.0 1.0 1.0 1.0 1.0 1.0 1.0 1.0 1.0 1.0 1.0 1.0 1.0 1.0 96.0 1.0 1.0 1.0 1.0 1.0 1.0 1.0 1.0 1.0 1.0 1.0 1.0 1.0 44.0 1.0 1.0 1.0 1.0 1.0 1.0 1.0 1.0 1.0 1.0 1.0 1.0 1.0 43.0 1.0 1.0 1.0
112 1.0 1.0 1.0 1.0 1.0 1.0 1.0 1.0 1.0 1.0 1.0 67.0 1.0 1.0 1.0 1.0 1.0 1.0 1.0 1.0 1.0 1.0 1.0 1.0 1.0 40.0 1.0 1.0 1.0 1.0 1.0 1.0 1.0 1.0 1.0 1.0 1.0 1.0 1.0 80.0 1.0 1.0 1.0 1.0 1.0 1.0 1.0 1.0 1.0 1.0 1.0 1.0 1.0 54.0 1.0 1.0 1.0 1.0 1.0 1.0 1.0 1.0 1.0 1.0 1.0 1.0 1.0 72.0 1.0 1.0 1.0 1.0 1.0 1.0 1.0 1.0 1.0 1.0 1.0 1.0 1.0 83.0 1.0 1.0 1.0 1.0 1.0 1.0 1.0 1.0 1.0 1.0 1.0 1.0 1.0 92.0 1.0 1.0 1.0 1.0 1.0 1.0 1.0 1.0 1.0 1.0 1.0 1.0 1.0 99.0 1.0 1.0
112 1.0 1.0 1.0 1.0 1.0 1.0 1.0 1.0 1.0 1.0 1.0 1.0 75.0 1.0 1.0 1.0 1.0 1.0 1.0 1.0 1.0 1.0 1.0 1.0 1.0 1.0 20.0 1.0 1.0 1.0 1.0 1.0 1.0 1.0 1.0 1.0 1.0 1.0 1.0 1.0 77.0 1.0 1.0 1.0 1.0 1.0 1.0 1.0 1.0 1.0 1.0 1.0 1.0 1.0 68.0 1.0 1.0 1.0 1.0 1.0 1.0 1.0 1.0 1.0 1.0 1.0 1.0 1.0 65.0 1.0 1.0 1.0 1.0 1.0 1.0 1.0 1.0 1.0 1.0 1.0 1.0 1.0 34.0 1.0 1.0 1.0 1.0 1.0 1.0 1.0 1.0 1.0 1.0 1.0 1.0 1.0 90.0 1.0 1.0 1.0 1.0 1.0 1.0 1.0 1.0 1.0 1.0 1.0 1.0 1.0 1.0 1.0
112 1.0 1.0 1.0 1.0 1.0 1.0 1.0 1.0 1.0 1.0 1.0 1.0 1.0 61.0 1.0 1.0 1.0 1.0 1.0 1.0 1.0 1.0 1.0 1.0 1.0 1.0 1.0 60.0 1.0 1.0 1.0 1.0 1.0 1.0 1.0 1.0 1.0 1.0 1.0 1.0 1.0 59.0 1.0 1.0 1.0 1.0 1.0 1.0 1.0 1.0 1.0 1.0 1.0 1.0 1.0 66.0 1.0 1.0 1.0 1.0 1.0 1.0 1.0 1.0 1.0 1.0 1.0 1.0 1.0 59.0 1.0 1.0 1.0 1.0 1.0 1.0 1.0 1.0 1.0 1.0 1.0 1.0 1.0 36.0 1.0 1.0 1.0 1.0 1.0 1.0 1.0 1.0 1.0 1.0 1.0 1.0 1.0 88.0 1.0 1.0 1.0 1.0 1.0 1.0 1.0 1.0 1.0 1.0 1.0 1.0 1.0 72.0
14 1.0 1.0 1.0 1.0 1.0 1.0 1.0 1.0 1.0 1.0 1.0 1.0 1.0 1.0
